
Gurobi 11.0.1 (win64, Python) logging started Thu Jan 23 17:03:47 2025

Set parameter Username
Set parameter LicenseID to value 2611372
Set parameter LogFile to value "gurobi.log"
Academic license - for non-commercial use only - expires 2026-01-17
